c Output from iscas2cnf
cc inputs 1 2 3 4 5 6 7 8 9 10 11 12 13 14 15 16 17 18 19 20 21 22 23 24 25 26 27 28 29 30 31 32 33 34 35 36 
cc outputs 37 
p cnf 389 1115
-1 -38 0
1 38 0
-2 -39 0
2 39 0
-4 -40 0
4 40 0
-6 -41 0
6 41 0
-8 -42 0
8 42 0
-10 -43 0
10 43 0
-12 -44 0
12 44 0
-14 -45 0
14 45 0
-16 -46 0
16 46 0
-18 -47 0
18 47 0
-20 -48 0
20 48 0
-22 -49 0
22 49 0
-24 -50 0
24 50 0
-26 -51 0
26 51 0
-28 -52 0
28 52 0
-30 -53 0
30 53 0
-32 -54 0
32 54 0
-34 -55 0
34 55 0
38 56 0
2 56 0
-56 -38 -2 0
-3 -57 0
-39 -57 0
57 3 39 0
-5 -58 0
-39 -58 0
58 5 39 0
40 59 0
6 59 0
-59 -40 -6 0
42 60 0
10 60 0
-60 -42 -10 0
44 61 0
14 61 0
-61 -44 -14 0
46 62 0
18 62 0
-62 -46 -18 0
48 63 0
22 63 0
-63 -48 -22 0
50 64 0
26 64 0
-64 -50 -26 0
52 65 0
30 65 0
-65 -52 -30 0
54 66 0
34 66 0
-66 -54 -34 0
-7 -67 0
-41 -67 0
67 7 41 0
-9 -68 0
-41 -68 0
68 9 41 0
-11 -69 0
-43 -69 0
69 11 43 0
-13 -70 0
-43 -70 0
70 13 43 0
-15 -71 0
-45 -71 0
71 15 45 0
-17 -72 0
-45 -72 0
72 17 45 0
-19 -73 0
-47 -73 0
73 19 47 0
-21 -74 0
-47 -74 0
74 21 47 0
-23 -75 0
-49 -75 0
75 23 49 0
-25 -76 0
-49 -76 0
76 25 49 0
-27 -77 0
-51 -77 0
77 27 51 0
-29 -78 0
-51 -78 0
78 29 51 0
-31 -79 0
-53 -79 0
79 31 53 0
-33 -80 0
-53 -80 0
80 33 53 0
-35 -81 0
-55 -81 0
81 35 55 0
-36 -82 0
-55 -82 0
82 36 55 0
56 -83 0
59 -83 0
60 -83 0
61 -83 0
62 -83 0
63 -83 0
64 -83 0
65 -83 0
66 -83 0
83 -56 -59 -60 -61 -62 -63 -64 -65 -66 0
-83 -84 0
83 84 0
-83 -85 0
83 85 0
-83 -86 0
83 86 0
-84 56 87 0
84 -56 87 0
-84 -56 -87 0
84 56 -87 0
-84 59 88 0
84 -59 88 0
-84 -59 -88 0
84 59 -88 0
-84 60 89 0
84 -60 89 0
-84 -60 -89 0
84 60 -89 0
-84 61 90 0
84 -61 90 0
-84 -61 -90 0
84 61 -90 0
-84 62 91 0
84 -62 91 0
-84 -62 -91 0
84 62 -91 0
-84 63 92 0
84 -63 92 0
-84 -63 -92 0
84 63 -92 0
1 93 0
85 93 0
-93 -1 -85 0
-84 64 94 0
84 -64 94 0
-84 -64 -94 0
84 64 -94 0
85 95 0
4 95 0
-95 -85 -4 0
-84 65 96 0
84 -65 96 0
-84 -65 -96 0
84 65 -96 0
85 97 0
8 97 0
-97 -85 -8 0
-84 66 98 0
84 -66 98 0
-84 -66 -98 0
84 66 -98 0
85 99 0
12 99 0
-99 -85 -12 0
85 100 0
16 100 0
-100 -85 -16 0
85 101 0
20 101 0
-101 -85 -20 0
85 102 0
24 102 0
-102 -85 -24 0
85 103 0
28 103 0
-103 -85 -28 0
85 104 0
32 104 0
-104 -85 -32 0
87 105 0
57 105 0
-105 -87 -57 0
87 106 0
58 106 0
-106 -87 -58 0
88 107 0
67 107 0
-107 -88 -67 0
89 108 0
69 108 0
-108 -89 -69 0
90 109 0
71 109 0
-109 -90 -71 0
91 110 0
73 110 0
-110 -91 -73 0
92 111 0
75 111 0
-111 -92 -75 0
94 112 0
77 112 0
-112 -94 -77 0
96 113 0
79 113 0
-113 -96 -79 0
98 114 0
81 114 0
-114 -98 -81 0
88 115 0
68 115 0
-115 -88 -68 0
89 116 0
70 116 0
-116 -89 -70 0
90 117 0
72 117 0
-117 -90 -72 0
91 118 0
74 118 0
-118 -91 -74 0
92 119 0
76 119 0
-119 -92 -76 0
94 120 0
78 120 0
-120 -94 -78 0
96 121 0
80 121 0
-121 -96 -80 0
98 122 0
82 122 0
-122 -98 -82 0
105 -123 0
107 -123 0
108 -123 0
109 -123 0
110 -123 0
111 -123 0
112 -123 0
113 -123 0
114 -123 0
123 -105 -107 -108 -109 -110 -111 -112 -113 -114 0
-106 -124 0
106 124 0
-115 -125 0
115 125 0
-116 -126 0
116 126 0
-117 -127 0
117 127 0
-118 -128 0
118 128 0
-119 -129 0
119 129 0
-120 -130 0
120 130 0
-121 -131 0
121 131 0
-122 -132 0
122 132 0
-123 -133 0
123 133 0
-123 -134 0
123 134 0
-123 -135 0
123 135 0
-133 105 136 0
133 -105 136 0
-133 -105 -136 0
133 105 -136 0
-133 107 137 0
133 -107 137 0
-133 -107 -137 0
133 107 -137 0
-133 108 138 0
133 -108 138 0
-133 -108 -138 0
133 108 -138 0
-133 109 139 0
133 -109 139 0
-133 -109 -139 0
133 109 -139 0
3 140 0
134 140 0
-140 -3 -134 0
-133 110 141 0
133 -110 141 0
-133 -110 -141 0
133 110 -141 0
134 142 0
7 142 0
-142 -134 -7 0
-133 111 143 0
133 -111 143 0
-133 -111 -143 0
133 111 -143 0
134 144 0
11 144 0
-144 -134 -11 0
-133 112 145 0
133 -112 145 0
-133 -112 -145 0
133 112 -145 0
134 146 0
15 146 0
-146 -134 -15 0
-133 113 147 0
133 -113 147 0
-133 -113 -147 0
133 113 -147 0
134 148 0
19 148 0
-148 -134 -19 0
-133 114 149 0
133 -114 149 0
-133 -114 -149 0
133 114 -149 0
134 150 0
23 150 0
-150 -134 -23 0
134 151 0
27 151 0
-151 -134 -27 0
134 152 0
31 152 0
-152 -134 -31 0
134 153 0
35 153 0
-153 -134 -35 0
136 154 0
124 154 0
-154 -136 -124 0
137 155 0
125 155 0
-155 -137 -125 0
138 156 0
126 156 0
-156 -138 -126 0
139 157 0
127 157 0
-157 -139 -127 0
141 158 0
128 158 0
-158 -141 -128 0
143 159 0
129 159 0
-159 -143 -129 0
145 160 0
130 160 0
-160 -145 -130 0
147 161 0
131 161 0
-161 -147 -131 0
149 162 0
132 162 0
-162 -149 -132 0
154 -163 0
155 -163 0
156 -163 0
157 -163 0
158 -163 0
159 -163 0
160 -163 0
161 -163 0
162 -163 0
163 -154 -155 -156 -157 -158 -159 -160 -161 -162 0
-163 -164 0
163 164 0
-163 -165 0
163 165 0
5 166 0
164 166 0
-166 -5 -164 0
164 167 0
9 167 0
-167 -164 -9 0
164 168 0
13 168 0
-168 -164 -13 0
164 169 0
17 169 0
-169 -164 -17 0
164 170 0
21 170 0
-170 -164 -21 0
164 171 0
25 171 0
-171 -164 -25 0
164 172 0
29 172 0
-172 -164 -29 0
164 173 0
33 173 0
-173 -164 -33 0
164 174 0
36 174 0
-174 -164 -36 0
2 175 0
93 175 0
140 175 0
166 175 0
-175 -2 -93 -140 -166 0
95 176 0
142 176 0
167 176 0
6 176 0
-176 -95 -142 -167 -6 0
97 177 0
144 177 0
168 177 0
10 177 0
-177 -97 -144 -168 -10 0
99 178 0
146 178 0
169 178 0
14 178 0
-178 -99 -146 -169 -14 0
100 179 0
148 179 0
170 179 0
18 179 0
-179 -100 -148 -170 -18 0
101 180 0
150 180 0
171 180 0
22 180 0
-180 -101 -150 -171 -22 0
102 181 0
151 181 0
172 181 0
26 181 0
-181 -102 -151 -172 -26 0
103 182 0
152 182 0
173 182 0
30 182 0
-182 -103 -152 -173 -30 0
104 183 0
153 183 0
174 183 0
34 183 0
-183 -104 -153 -174 -34 0
-175 -184 0
175 184 0
176 -185 0
177 -185 0
178 -185 0
179 -185 0
180 -185 0
181 -185 0
182 -185 0
183 -185 0
185 -176 -177 -178 -179 -180 -181 -182 -183 0
-178 -186 0
178 186 0
-180 -187 0
180 187 0
-181 -188 0
181 188 0
-182 -189 0
182 189 0
-184 -190 0
-185 -190 0
190 184 185 0
177 191 0
186 191 0
-191 -177 -186 0
177 192 0
178 192 0
187 192 0
179 192 0
-192 -177 -178 -187 -179 0
179 193 0
178 193 0
188 193 0
-193 -179 -178 -188 0
177 194 0
178 194 0
181 194 0
189 194 0
-194 -177 -178 -181 -189 0
176 195 0
177 195 0
191 195 0
179 195 0
-195 -176 -177 -191 -179 0
176 196 0
177 196 0
192 196 0
193 196 0
-196 -176 -177 -192 -193 0
176 197 0
191 197 0
192 197 0
194 197 0
-197 -176 -191 -192 -194 0
-1 -198 0
1 198 0
-2 -199 0
2 199 0
-4 -200 0
4 200 0
-6 -201 0
6 201 0
-8 -202 0
8 202 0
-10 -203 0
10 203 0
-12 -204 0
12 204 0
-14 -205 0
14 205 0
-16 -206 0
16 206 0
-18 -207 0
18 207 0
-20 -208 0
20 208 0
-22 -209 0
22 209 0
-24 -210 0
24 210 0
-26 -211 0
26 211 0
-28 -212 0
28 212 0
-30 -213 0
30 213 0
-32 -214 0
32 214 0
-34 -215 0
34 215 0
198 216 0
2 216 0
-216 -198 -2 0
-3 -217 0
-199 -217 0
217 3 199 0
-5 -218 0
-199 -218 0
218 5 199 0
200 219 0
6 219 0
-219 -200 -6 0
202 220 0
10 220 0
-220 -202 -10 0
204 221 0
14 221 0
-221 -204 -14 0
206 222 0
18 222 0
-222 -206 -18 0
208 223 0
22 223 0
-223 -208 -22 0
210 224 0
26 224 0
-224 -210 -26 0
212 225 0
30 225 0
-225 -212 -30 0
214 226 0
34 226 0
-226 -214 -34 0
-7 -227 0
-201 -227 0
227 7 201 0
-9 -228 0
-201 -228 0
228 9 201 0
-11 -229 0
-203 -229 0
229 11 203 0
-13 -230 0
-203 -230 0
230 13 203 0
-15 -231 0
-205 -231 0
231 15 205 0
-17 -232 0
-205 -232 0
232 17 205 0
-19 -233 0
-207 -233 0
233 19 207 0
-21 -234 0
-207 -234 0
234 21 207 0
-23 -235 0
-209 -235 0
235 23 209 0
-25 -236 0
-209 -236 0
236 25 209 0
-27 -237 0
-211 -237 0
237 27 211 0
-29 -238 0
-211 -238 0
238 29 211 0
-31 -239 0
-213 -239 0
239 31 213 0
-33 -240 0
-213 -240 0
240 33 213 0
-35 -241 0
-215 -241 0
241 35 215 0
-36 -242 0
-215 -242 0
242 36 215 0
216 -243 0
219 -243 0
220 -243 0
221 -243 0
222 -243 0
223 -243 0
224 -243 0
225 -243 0
226 -243 0
243 -216 -219 -220 -221 -222 -223 -224 -225 -226 0
-243 -244 0
243 244 0
-243 -245 0
243 245 0
-243 -246 0
243 246 0
-244 216 247 0
244 -216 247 0
-244 -216 -247 0
244 216 -247 0
-244 219 248 0
244 -219 248 0
-244 -219 -248 0
244 219 -248 0
-244 220 249 0
244 -220 249 0
-244 -220 -249 0
244 220 -249 0
-244 221 250 0
244 -221 250 0
-244 -221 -250 0
244 221 -250 0
-244 222 251 0
244 -222 251 0
-244 -222 -251 0
244 222 -251 0
-244 223 252 0
244 -223 252 0
-244 -223 -252 0
244 223 -252 0
1 253 0
245 253 0
-253 -1 -245 0
-244 224 254 0
244 -224 254 0
-244 -224 -254 0
244 224 -254 0
245 255 0
4 255 0
-255 -245 -4 0
-244 225 256 0
244 -225 256 0
-244 -225 -256 0
244 225 -256 0
245 257 0
8 257 0
-257 -245 -8 0
-244 226 258 0
244 -226 258 0
-244 -226 -258 0
244 226 -258 0
245 259 0
12 259 0
-259 -245 -12 0
245 260 0
16 260 0
-260 -245 -16 0
245 261 0
20 261 0
-261 -245 -20 0
245 262 0
24 262 0
-262 -245 -24 0
245 263 0
28 263 0
-263 -245 -28 0
247 264 0
217 264 0
-264 -247 -217 0
247 265 0
218 265 0
-265 -247 -218 0
248 266 0
227 266 0
-266 -248 -227 0
249 267 0
229 267 0
-267 -249 -229 0
250 268 0
231 268 0
-268 -250 -231 0
251 269 0
233 269 0
-269 -251 -233 0
252 270 0
235 270 0
-270 -252 -235 0
254 271 0
237 271 0
-271 -254 -237 0
256 272 0
239 272 0
-272 -256 -239 0
258 273 0
241 273 0
-273 -258 -241 0
248 274 0
228 274 0
-274 -248 -228 0
249 275 0
230 275 0
-275 -249 -230 0
250 276 0
232 276 0
-276 -250 -232 0
251 277 0
234 277 0
-277 -251 -234 0
252 278 0
236 278 0
-278 -252 -236 0
254 279 0
238 279 0
-279 -254 -238 0
256 280 0
240 280 0
-280 -256 -240 0
258 281 0
242 281 0
-281 -258 -242 0
264 -282 0
266 -282 0
267 -282 0
268 -282 0
269 -282 0
270 -282 0
271 -282 0
272 -282 0
273 -282 0
282 -264 -266 -267 -268 -269 -270 -271 -272 -273 0
-265 -283 0
265 283 0
-274 -284 0
274 284 0
-275 -285 0
275 285 0
-276 -286 0
276 286 0
-277 -287 0
277 287 0
-278 -288 0
278 288 0
-279 -289 0
279 289 0
-280 -290 0
280 290 0
-281 -291 0
281 291 0
-282 -292 0
282 292 0
-282 -293 0
282 293 0
-282 -294 0
282 294 0
-292 264 295 0
292 -264 295 0
-292 -264 -295 0
292 264 -295 0
-292 266 296 0
292 -266 296 0
-292 -266 -296 0
292 266 -296 0
-292 267 297 0
292 -267 297 0
-292 -267 -297 0
292 267 -297 0
-292 268 298 0
292 -268 298 0
-292 -268 -298 0
292 268 -298 0
3 299 0
293 299 0
-299 -3 -293 0
-292 269 300 0
292 -269 300 0
-292 -269 -300 0
292 269 -300 0
293 301 0
7 301 0
-301 -293 -7 0
-292 270 302 0
292 -270 302 0
-292 -270 -302 0
292 270 -302 0
293 303 0
11 303 0
-303 -293 -11 0
-292 271 304 0
292 -271 304 0
-292 -271 -304 0
292 271 -304 0
293 305 0
15 305 0
-305 -293 -15 0
-292 272 306 0
292 -272 306 0
-292 -272 -306 0
292 272 -306 0
293 307 0
19 307 0
-307 -293 -19 0
-292 273 308 0
292 -273 308 0
-292 -273 -308 0
292 273 -308 0
293 309 0
23 309 0
-309 -293 -23 0
293 310 0
27 310 0
-310 -293 -27 0
293 311 0
31 311 0
-311 -293 -31 0
295 312 0
283 312 0
-312 -295 -283 0
296 313 0
284 313 0
-313 -296 -284 0
297 314 0
285 314 0
-314 -297 -285 0
298 315 0
286 315 0
-315 -298 -286 0
300 316 0
287 316 0
-316 -300 -287 0
302 317 0
288 317 0
-317 -302 -288 0
304 318 0
289 318 0
-318 -304 -289 0
306 319 0
290 319 0
-319 -306 -290 0
308 320 0
291 320 0
-320 -308 -291 0
312 -321 0
313 -321 0
314 -321 0
315 -321 0
316 -321 0
317 -321 0
318 -321 0
319 -321 0
320 -321 0
321 -312 -313 -314 -315 -316 -317 -318 -319 -320 0
-321 -322 0
321 322 0
-321 -323 0
321 323 0
5 324 0
322 324 0
-324 -5 -322 0
322 325 0
9 325 0
-325 -322 -9 0
322 326 0
13 326 0
-326 -322 -13 0
322 327 0
17 327 0
-327 -322 -17 0
322 328 0
21 328 0
-328 -322 -21 0
322 329 0
25 329 0
-329 -322 -25 0
322 330 0
29 330 0
-330 -322 -29 0
322 331 0
33 331 0
-331 -322 -33 0
2 332 0
253 332 0
299 332 0
324 332 0
-332 -2 -253 -299 -324 0
255 333 0
301 333 0
325 333 0
6 333 0
-333 -255 -301 -325 -6 0
257 334 0
303 334 0
326 334 0
10 334 0
-334 -257 -303 -326 -10 0
259 335 0
305 335 0
327 335 0
14 335 0
-335 -259 -305 -327 -14 0
260 336 0
307 336 0
328 336 0
18 336 0
-336 -260 -307 -328 -18 0
261 337 0
309 337 0
329 337 0
22 337 0
-337 -261 -309 -329 -22 0
262 338 0
310 338 0
330 338 0
26 338 0
-338 -262 -310 -330 -26 0
263 339 0
311 339 0
331 339 0
30 339 0
-339 -263 -311 -331 -30 0
-34 -340 0
34 340 0
-332 -341 0
332 341 0
333 -342 0
334 -342 0
335 -342 0
336 -342 0
337 -342 0
338 -342 0
339 -342 0
340 -342 0
342 -333 -334 -335 -336 -337 -338 -339 -340 0
-335 -343 0
335 343 0
-337 -344 0
337 344 0
-338 -345 0
338 345 0
-339 -346 0
339 346 0
-341 -347 0
-342 -347 0
347 341 342 0
334 348 0
343 348 0
-348 -334 -343 0
334 349 0
335 349 0
344 349 0
336 349 0
-349 -334 -335 -344 -336 0
336 350 0
335 350 0
345 350 0
-350 -336 -335 -345 0
334 351 0
338 351 0
346 351 0
-351 -334 -338 -346 0
333 352 0
334 352 0
348 352 0
336 352 0
-352 -333 -334 -348 -336 0
333 353 0
334 353 0
349 353 0
350 353 0
-353 -333 -334 -349 -350 0
333 354 0
348 354 0
349 354 0
351 354 0
-354 -333 -348 -349 -351 0
-86 -355 0
86 355 0
-246 -356 0
246 356 0
86 -357 0
356 -357 0
357 -86 -356 0
246 -358 0
355 -358 0
358 -246 -355 0
-357 359 0
-358 359 0
-359 357 358 0
-135 -360 0
135 360 0
-294 -361 0
294 361 0
135 -362 0
361 -362 0
362 -135 -361 0
294 -363 0
360 -363 0
363 -294 -360 0
-362 364 0
-363 364 0
-364 362 363 0
-165 -365 0
165 365 0
-323 -366 0
323 366 0
165 -367 0
366 -367 0
367 -165 -366 0
323 -368 0
365 -368 0
368 -323 -365 0
-367 369 0
-368 369 0
-369 367 368 0
-190 -370 0
190 370 0
-347 -371 0
347 371 0
190 -372 0
371 -372 0
372 -190 -371 0
347 -373 0
370 -373 0
373 -347 -370 0
-372 374 0
-373 374 0
-374 372 373 0
-195 -375 0
195 375 0
-352 -376 0
352 376 0
195 -377 0
376 -377 0
377 -195 -376 0
352 -378 0
375 -378 0
378 -352 -375 0
-377 379 0
-378 379 0
-379 377 378 0
-196 -380 0
196 380 0
-353 -381 0
353 381 0
196 -382 0
381 -382 0
382 -196 -381 0
353 -383 0
380 -383 0
383 -353 -380 0
-382 384 0
-383 384 0
-384 382 383 0
-197 -385 0
197 385 0
-354 -386 0
354 386 0
197 -387 0
386 -387 0
387 -197 -386 0
354 -388 0
385 -388 0
388 -354 -385 0
-387 389 0
-388 389 0
-389 387 388 0
-359 37 0
-364 37 0
-369 37 0
-374 37 0
-379 37 0
-384 37 0
-389 37 0
-37 359 364 369 374 379 384 389 0
37 0